p tw 256 704
1 33
2 34
3 35
4 36
5 37
6 38
7 39
8 40
9 41
10 42
11 43
12 44
13 45
14 46
15 47
16 48
17 49
18 50
19 51
20 52
21 53
22 54
23 55
24 56
25 57
26 58
27 59
28 60
29 61
30 62
31 63
32 64
33 103
33 132
33 142
33 144
34 85
34 92
34 110
34 113
35 70
35 105
35 108
35 109
36 96
36 131
36 134
36 136
37 81
37 118
37 124
37 127
38 111
38 122
38 128
38 130
39 94
39 95
39 96
39 97
40 69
40 88
40 92
40 93
41 86
41 94
41 120
41 121
42 71
42 110
42 111
42 112
43 78
43 98
43 134
43 135
44 74
44 105
44 106
44 107
45 77
45 80
45 98
45 99
46 75
46 108
46 128
46 129
47 84
47 85
47 86
47 87
48 69
48 70
48 71
48 72
49 95
49 131
49 132
49 133
50 66
50 84
50 103
50 104
51 120
51 125
51 139
51 141
52 100
52 114
52 122
52 123
53 90
53 137
53 139
53 140
54 117
54 124
54 125
54 126
55 88
55 89
55 90
55 91
56 82
56 101
56 137
56 138
57 73
57 100
57 101
57 102
58 73
58 74
58 75
58 76
59 65
59 77
59 78
59 79
60 106
60 117
60 118
60 119
61 89
61 114
61 115
61 116
62 80
62 81
62 82
62 83
63 67
63 115
63 142
63 143
64 65
64 66
64 67
64 68
65 66
65 67
65 68
65 77
65 78
65 79
66 67
66 68
66 84
66 103
66 104
67 68
67 115
67 142
67 143
68 145
68 146
68 147
68 148
69 70
69 71
69 72
69 88
69 92
69 93
70 71
70 72
70 105
70 108
70 109
71 72
71 110
71 111
71 112
72 149
72 150
72 151
72 152
73 74
73 75
73 76
73 100
73 101
73 102
74 75
74 76
74 105
74 106
74 107
75 76
75 108
75 128
75 129
76 153
76 154
76 155
76 156
77 78
77 79
77 80
77 98
77 99
78 79
78 98
78 134
78 135
79 145
79 157
79 158
79 159
80 81
80 82
80 83
80 98
80 99
81 82
81 83
81 118
81 124
81 127
82 83
82 101
82 137
82 138
83 160
83 161
83 162
83 163
84 85
84 86
84 87
84 103
84 104
85 86
85 87
85 92
85 110
85 113
86 87
86 94
86 120
86 121
87 164
87 165
87 166
87 167
88 89
88 90
88 91
88 92
88 93
89 90
89 91
89 114
89 115
89 116
90 91
90 137
90 139
90 140
91 168
91 169
91 170
91 171
92 93
92 110
92 113
93 149
93 168
93 172
93 173
94 95
94 96
94 97
94 120
94 121
95 96
95 97
95 131
95 132
95 133
96 97
96 131
96 134
96 136
97 174
97 175
97 176
97 177
98 99
98 134
98 135
99 157
99 160
99 178
99 179
100 101
100 102
100 114
100 122
100 123
101 102
101 137
101 138
102 153
102 180
102 181
102 182
103 104
103 132
103 142
103 144
104 146
104 164
104 183
104 184
105 106
105 107
105 108
105 109
106 107
106 117
106 118
106 119
107 154
107 185
107 186
107 187
108 109
108 128
108 129
109 150
109 185
109 188
109 189
110 111
110 112
110 113
111 112
111 122
111 128
111 130
112 151
112 190
112 191
112 192
113 165
113 172
113 190
113 193
114 115
114 116
114 122
114 123
115 116
115 142
115 143
116 169
116 194
116 195
116 196
117 118
117 119
117 124
117 125
117 126
118 119
118 124
118 127
119 186
119 197
119 198
119 199
120 121
120 125
120 139
120 141
121 166
121 174
121 200
121 201
122 123
122 128
122 130
123 180
123 194
123 202
123 203
124 125
124 126
124 127
125 126
125 139
125 141
126 197
126 204
126 205
126 206
127 161
127 198
127 204
127 207
128 129
128 130
129 155
129 188
129 208
129 209
130 191
130 202
130 208
130 210
131 132
131 133
131 134
131 136
132 133
132 142
132 144
133 175
133 211
133 212
133 213
134 135
134 136
135 158
135 178
135 214
135 215
136 176
136 211
136 214
136 216
137 138
137 139
137 140
138 162
138 181
138 217
138 218
139 140
139 141
140 170
140 217
140 219
140 220
141 200
141 205
141 219
141 221
142 143
142 144
143 147
143 195
143 222
143 223
144 183
144 212
144 222
144 224
145 146
145 147
145 148
145 157
145 158
145 159
146 147
146 148
146 164
146 183
146 184
147 148
147 195
147 222
147 223
148 225
149 150
149 151
149 152
149 168
149 172
149 173
150 151
150 152
150 185
150 188
150 189
151 152
151 190
151 191
151 192
152 241
153 154
153 155
153 156
153 180
153 181
153 182
154 155
154 156
154 185
154 186
154 187
155 156
155 188
155 208
155 209
156 231
157 158
157 159
157 160
157 178
157 179
158 159
158 178
158 214
158 215
159 230
160 161
160 162
160 163
160 178
160 179
161 162
161 163
161 198
161 204
161 207
162 163
162 181
162 217
162 218
163 227
164 165
164 166
164 167
164 183
164 184
165 166
165 167
165 172
165 190
165 193
166 167
166 174
166 200
166 201
167 242
168 169
168 170
168 171
168 172
168 173
169 170
169 171
169 194
169 195
169 196
170 171
170 217
170 219
170 220
171 234
172 173
172 190
172 193
173 249
174 175
174 176
174 177
174 200
174 201
175 176
175 177
175 211
175 212
175 213
176 177
176 211
176 214
176 216
177 250
178 179
178 214
178 215
179 244
180 181
180 182
180 194
180 202
180 203
181 182
181 217
181 218
182 232
183 184
183 212
183 222
183 224
184 239
185 186
185 187
185 188
185 189
186 187
186 197
186 198
186 199
187 245
188 189
188 208
188 209
189 254
190 191
190 192
190 193
191 192
191 202
191 208
191 210
192 247
193 255
194 195
194 196
194 202
194 203
195 196
195 222
195 223
196 228
197 198
197 199
197 204
197 205
197 206
198 199
198 204
198 207
199 229
200 201
200 205
200 219
200 221
201 248
202 203
202 208
202 210
203 237
204 205
204 206
204 207
205 206
205 219
205 221
206 235
207 252
208 209
208 210
209 243
210 251
211 212
211 213
211 214
211 216
212 213
212 222
212 224
213 240
214 215
214 216
215 246
216 253
217 218
217 219
217 220
218 233
219 220
219 221
220 236
221 238
222 223
222 224
223 226
224 256
